184
400
320	2
317	1
315	1
314	1
313	1
312	2
311	3
309	5
308	1
306	2
304	2
302	2
300	2
299	2
298	2
297	1
293	2
292	1
291	1
290	1
288	2
287	1
286	1
285	2
283	1
282	1
281	1
280	1
279	1
278	1
276	1
275	3
273	2
272	1
271	1
270	1
269	1
268	1
266	1
265	1
264	3
263	2
262	3
260	1
259	3
258	1
256	2
255	2
254	3
252	1
251	2
250	2
249	5
247	1
245	2
243	1
242	4
241	1
240	1
239	2
237	2
236	1
235	1
234	3
233	1
232	1
231	1
227	2
226	1
225	1
223	3
222	2
221	2
220	1
219	1
217	2
215	2
214	2
213	1
210	1
209	3
208	2
207	3
206	1
205	1
204	2
202	1
201	1
198	1
197	2
195	1
194	1
193	3
189	1
185	1
180	1
179	1
178	2
176	4
175	2
174	1
173	1
172	2
171	1
170	2
168	2
164	2
162	2
160	1
158	1
156	1
154	2
153	1
152	1
150	1
149	2
148	1
147	2
146	1
145	1
144	1
143	2
141	3
139	1
138	3
137	1
136	1
135	1
132	1
131	1
130	1
129	1
127	1
126	4
125	1
123	2
121	1
119	1
118	1
117	1
114	2
113	1
111	3
110	1
108	1
106	1
105	1
104	3
101	4
99	1
97	2
94	3
91	3
90	1
88	1
87	2
84	1
83	1
81	3
80	1
78	1
77	1
76	2
73	1
72	4
71	3
69	1
68	1
65	1
64	2
63	1
61	3
59	2
58	2
55	2
54	2
53	2
52	1
51	1
47	1
45	2
44	1
42	1
40	2
